weniger-krumme-touren/beispiele/random/40/404.txt.solution
[39, 38, 37, 36, 34, 33, 32, 31, 35, 29, 23, 27, 26, 25, 30, 24, 28, 22, 21, 20, 19, 18, 17, 16, 15, 14, 13, 12, 11, 10, 9, 8, 7, 6, 5, 4, 3, 2, 1, 0]